(set-info :smt-lib-version 2.6)
(set-logic ALL)
(set-info :source |
Generated on: 2026-06-22
Generator: ppTransSmt github.com/CLEARSY/pptranspog
Application: Discharging a proof obligation generated by aTelierB from an anonymized B machine
Target solver: CVC5 (--mbqi --enum-inst)
Time limit: 1200.0
|)
(set-info :license "www.gnu.org/licenses/gpl-3.0.en.html")
(set-info :category "industrial")
(set-info :status unknown)

; Prelude
(declare-sort P 1)
(declare-fun mem0 (Int (P Int)) Bool)
(declare-sort C 2)
(define-fun MinInt () Int (- 2147483648))
(define-fun MaxInt () Int 2147483647)
; Global declarations
(declare-fun g_s0_0 () (P Int))
(declare-fun g_s100$1_99 () Int)
(declare-fun g_s100_137 () Int)
(declare-fun g_s101$1_100 () Int)
(declare-fun g_s101_122 () Int)
(declare-fun g_s102$1_101 () Int)
(declare-fun g_s102_121 () Int)
(declare-fun g_s103$1_102 () Int)
(declare-fun g_s103_123 () Int)
(declare-fun g_s104$1_103 () Int)
(declare-fun g_s104_130 () Int)
(declare-fun g_s105$1_104 () Int)
(declare-fun g_s105_131 () Int)
(declare-fun g_s106$1_109 () Bool)
(declare-fun g_s106_132 () Bool)
(declare-fun g_s107$1_134 () Bool)
(declare-fun g_s107_133 () Bool)
(declare-fun g_s108$1_136 () Bool)
(declare-fun g_s108_135 () Bool)
(declare-fun g_s109$1_105 () Int)
(declare-fun g_s109_116 () Int)
(declare-fun g_s10_10 () Int)
(declare-fun g_s110$1_106 () Int)
(declare-fun g_s110_127 () Int)
(declare-fun g_s111$1_107 () Int)
(declare-fun g_s111_117 () Int)
(declare-fun g_s112$1_108 () Int)
(declare-fun g_s112_128 () Int)
(declare-fun g_s113_110 () Int)
(declare-fun g_s114$1_111 () Bool)
(declare-fun g_s114_120 () Bool)
(declare-fun g_s115$1_112 () Int)
(declare-fun g_s115_129 () Int)
(declare-fun g_s116$1_113 () Int)
(declare-fun g_s116_118 () Int)
(declare-fun g_s117$1_114 () Int)
(declare-fun g_s117_119 () Int)
(declare-fun g_s118$1_115 () Int)
(declare-fun g_s118_124 () Int)
(declare-fun g_s119$1_126 () Bool)
(declare-fun g_s119_125 () Bool)
(declare-fun g_s11_11 () Int)
(declare-fun g_s120$1_138 () (P (C Int Bool)))
(declare-fun g_s121$1_140 () Bool)
(declare-fun g_s123$1_141 () Bool)
(declare-fun g_s124$1_142 () Bool)
(declare-fun g_s125$1_143 () Bool)
(declare-fun g_s12_12 () Int)
(declare-fun g_s130$1_139 () Int)
(declare-fun g_s13_13 () (P Int))
(declare-fun g_s14_14 () Int)
(declare-fun g_s15_15 () Int)
(declare-fun g_s16_16 () Int)
(declare-fun g_s17_17 () Int)
(declare-fun g_s18_18 () Int)
(declare-fun g_s19_19 () Int)
(declare-fun g_s1_1 () Int)
(declare-fun g_s20_20 () Int)
(declare-fun g_s21_21 () (P Int))
(declare-fun g_s22_22 () Int)
(declare-fun g_s23_23 () Int)
(declare-fun g_s24_24 () Int)
(declare-fun g_s25_25 () Int)
(declare-fun g_s26_26 () Int)
(declare-fun g_s27_27 () Int)
(declare-fun g_s28_28 () Int)
(declare-fun g_s29_29 () Int)
(declare-fun g_s2_2 () Int)
(declare-fun g_s30_30 () Int)
(declare-fun g_s31_31 () Int)
(declare-fun g_s32_32 () Int)
(declare-fun g_s33_33 () Int)
(declare-fun g_s34_34 () Int)
(declare-fun g_s35_35 () Int)
(declare-fun g_s36_36 () Int)
(declare-fun g_s37_37 () Int)
(declare-fun g_s38_38 () Int)
(declare-fun g_s39_39 () Int)
(declare-fun g_s3_3 () Int)
(declare-fun g_s40_40 () Int)
(declare-fun g_s41_41 () Int)
(declare-fun g_s42_42 () Int)
(declare-fun g_s43_43 () Int)
(declare-fun g_s44_44 () Int)
(declare-fun g_s45_45 () Int)
(declare-fun g_s46_46 () Int)
(declare-fun g_s47_47 () Int)
(declare-fun g_s48_48 () Int)
(declare-fun g_s49_49 () Int)
(declare-fun g_s4_4 () Int)
(declare-fun g_s50_50 () Int)
(declare-fun g_s51_51 () Int)
(declare-fun g_s52_52 () Int)
(declare-fun g_s53_53 () Int)
(declare-fun g_s54_54 () Int)
(declare-fun g_s55_55 () Int)
(declare-fun g_s56_56 () Int)
(declare-fun g_s57_57 () Int)
(declare-fun g_s58_58 () Int)
(declare-fun g_s59_59 () Int)
(declare-fun g_s5_5 () (P Int))
(declare-fun g_s60_60 () (P Int))
(declare-fun g_s61_61 () Int)
(declare-fun g_s62_62 () Int)
(declare-fun g_s63_63 () Int)
(declare-fun g_s64_64 () Int)
(declare-fun g_s65_65 () Int)
(declare-fun g_s66_66 () (P Int))
(declare-fun g_s67_67 () (P Int))
(declare-fun g_s68_68 () Int)
(declare-fun g_s69_69 () Int)
(declare-fun g_s6_6 () (P Int))
(declare-fun g_s70_70 () Int)
(declare-fun g_s71_71 () (P Int))
(declare-fun g_s72_72 () Int)
(declare-fun g_s73_73 () Int)
(declare-fun g_s74_74 () Int)
(declare-fun g_s75_75 () (P Int))
(declare-fun g_s76_76 () Int)
(declare-fun g_s77_77 () Int)
(declare-fun g_s78_78 () (P Int))
(declare-fun g_s79_79 () Int)
(declare-fun g_s7_7 () (P Int))
(declare-fun g_s80_80 () Int)
(declare-fun g_s81_81 () Int)
(declare-fun g_s82_82 () (P Int))
(declare-fun g_s83_83 () Int)
(declare-fun g_s84_84 () Int)
(declare-fun g_s85_85 () Int)
(declare-fun g_s86_86 () Int)
(declare-fun g_s87_87 () (P Int))
(declare-fun g_s88_88 () (P (C Int Bool)))
(declare-fun g_s89_89 () (P (C Int Int)))
(declare-fun g_s8_8 () Int)
(declare-fun g_s90_90 () (P (C (C Int Int) Bool)))
(declare-fun g_s91_91 () (P Int))
(declare-fun g_s92_92 () (P Int))
(declare-fun g_s93_93 () (P Int))
(declare-fun g_s94_94 () (P Int))
(declare-fun g_s95_95 () (P Int))
(declare-fun g_s96_96 () (P (C Int (P Int))))
(declare-fun g_s97_97 () (P (C Int Int)))
(declare-fun g_s98_98 () (P (C Int Int)))
(declare-fun g_s9_9 () (P Int))
(declare-fun mem2 ( Int Int (P (C Int Int))) Bool)
(declare-fun mem3 ( Int Bool (P (C Int Bool))) Bool)
(declare-fun mem4 ( Int Int Bool (P (C (C Int Int) Bool))) Bool)
(declare-fun mem5 ( Int (P Int) (P (C Int (P Int)))) Bool)
; Defines
(define-fun |def_lprp_0| () Bool (and (forall ( (x_3 Int) ) (= (mem0 x_3 g_s0_0) (or  (= x_3 g_s1_1) (= x_3 g_s2_2) (= x_3 g_s3_3) (= x_3 g_s4_4)))) (distinct g_s1_1 g_s2_2 g_s3_3 g_s4_4)))
(define-fun |def_lprp_1| () Bool (forall ( (x_4 Int) ) (=> (mem0 x_4 g_s5_5) (mem0 x_4 g_s6_6))))
(define-fun |def_lprp_2| () Bool (forall ( (x_5 Int) ) (= (mem0 x_5 g_s5_5) (and (mem0 x_5 g_s7_7) (not (= x_5 g_s8_8))))))
(define-fun |def_aprp_0| () Bool (and (forall ( (x_6 Int) ) (= (mem0 x_6 g_s9_9) (or  (= x_6 g_s10_10) (= x_6 g_s11_11) (= x_6 g_s12_12)))) (distinct g_s10_10 g_s11_11 g_s12_12)))
(define-fun |def_aprp_1| () Bool (and (forall ( (x_7 Int) ) (= (mem0 x_7 g_s13_13) (or  (= x_7 g_s14_14) (= x_7 g_s15_15) (= x_7 g_s16_16) (= x_7 g_s17_17) (= x_7 g_s18_18) (= x_7 g_s19_19) (= x_7 g_s20_20)))) (distinct g_s14_14 g_s15_15 g_s16_16 g_s17_17 g_s18_18 g_s19_19 g_s20_20)))
(define-fun |def_aprp_2| () Bool (and (forall ( (x_8 Int) ) (= (mem0 x_8 g_s21_21) (or  (= x_8 g_s22_22) (= x_8 g_s23_23) (= x_8 g_s24_24)))) (distinct g_s22_22 g_s23_23 g_s24_24)))
(define-fun |def_aprp_3| () Bool (and (forall ( (x_9 Int) ) (= (mem0 x_9 g_s6_6) (or  (= x_9 g_s25_25) (= x_9 g_s26_26) (= x_9 g_s27_27) (= x_9 g_s28_28) (= x_9 g_s29_29) (= x_9 g_s30_30) (= x_9 g_s31_31) (= x_9 g_s32_32) (= x_9 g_s33_33) (= x_9 g_s34_34) (= x_9 g_s35_35) (= x_9 g_s36_36) (= x_9 g_s37_37) (= x_9 g_s38_38) (= x_9 g_s39_39) (= x_9 g_s40_40) (= x_9 g_s41_41) (= x_9 g_s42_42) (= x_9 g_s43_43) (= x_9 g_s44_44) (= x_9 g_s45_45) (= x_9 g_s46_46) (= x_9 g_s47_47) (= x_9 g_s48_48) (= x_9 g_s49_49) (= x_9 g_s50_50) (= x_9 g_s51_51) (= x_9 g_s8_8) (= x_9 g_s52_52) (= x_9 g_s53_53) (= x_9 g_s54_54) (= x_9 g_s55_55) (= x_9 g_s56_56) (= x_9 g_s57_57) (= x_9 g_s58_58) (= x_9 g_s59_59)))) (distinct g_s25_25 g_s26_26 g_s27_27 g_s28_28 g_s29_29 g_s30_30 g_s31_31 g_s32_32 g_s33_33 g_s34_34 g_s35_35 g_s36_36 g_s37_37 g_s38_38 g_s39_39 g_s40_40 g_s41_41 g_s42_42 g_s43_43 g_s44_44 g_s45_45 g_s46_46 g_s47_47 g_s48_48 g_s49_49 g_s50_50 g_s51_51 g_s8_8 g_s52_52 g_s53_53 g_s54_54 g_s55_55 g_s56_56 g_s57_57 g_s58_58 g_s59_59)))
(define-fun |def_aprp_4| () Bool (and (forall ( (x_10 Int) ) (= (mem0 x_10 g_s60_60) (or  (= x_10 g_s61_61) (= x_10 g_s62_62) (= x_10 g_s63_63) (= x_10 g_s64_64) (= x_10 g_s65_65)))) (distinct g_s61_61 g_s62_62 g_s63_63 g_s64_64 g_s65_65)))
(define-fun |def_aprp_5| () Bool (and  (not (forall ( (x_11 Int) ) (= (mem0 x_11 g_s66_66) false))) (and  (forall ( (x_14 Int) ) (=> (mem0 x_14 g_s66_66) true)) (exists ( (x_12 Int) (x_13 (P (C Int Int))) ) (and (and (exists ( (x_15 (P (C Int Int))) ) (and (forall ( (x_16 Int) (x_17 Int) ) (= (mem2 x_17 x_16 x_15) (mem2 x_17 x_16 x_13))) (forall ( (x_18 Int) (x_19 Int) (x_20 Int) ) (=> (and  (mem2 x_18 x_19 x_15) (mem2 x_18 x_20 x_15)) (= x_19 x_20))) (forall ( (x_21 Int) ) (= (and (>= x_21 1) (<= x_21 x_12)) (exists ( (x_22 Int) ) (mem2 x_21 x_22 x_15)))) (forall ( (x_23 Int) ) (=> (exists ( (x_24 Int) ) (mem2 x_24 x_23 x_15)) (mem0 x_23 g_s66_66))))) (forall ( (x_25 Int) ) (=> (mem0 x_25 g_s66_66) (exists ( (x_26 Int) ) (mem2 x_26 x_25 x_13))))) (forall ( (x_27 Int) (x_28 Int) (x_29 Int) ) (=> (and  (mem2 x_28 x_27 x_13) (mem2 x_29 x_27 x_13)) (= x_28 x_29))))))))
(define-fun |def_aprp_6| () Bool (and (forall ( (x_30 Int) ) (= (mem0 x_30 g_s67_67) (or  (= x_30 g_s68_68) (= x_30 g_s69_69) (= x_30 g_s70_70)))) (distinct g_s68_68 g_s69_69 g_s70_70)))
(define-fun |def_aprp_7| () Bool (and (forall ( (x_31 Int) ) (= (mem0 x_31 g_s71_71) (or  (= x_31 g_s72_72) (= x_31 g_s73_73) (= x_31 g_s74_74)))) (distinct g_s72_72 g_s73_73 g_s74_74)))
(define-fun |def_aprp_8| () Bool (and (forall ( (x_32 Int) ) (= (mem0 x_32 g_s75_75) (or  (= x_32 g_s76_76) (= x_32 g_s77_77)))) (distinct g_s76_76 g_s77_77)))
(define-fun |def_aprp_9| () Bool (and (forall ( (x_33 Int) ) (= (mem0 x_33 g_s78_78) (or  (= x_33 g_s79_79) (= x_33 g_s80_80) (= x_33 g_s81_81)))) (distinct g_s79_79 g_s80_80 g_s81_81)))
(define-fun |def_aprp_10| () Bool (and (forall ( (x_34 Int) ) (= (mem0 x_34 g_s82_82) (or  (= x_34 g_s83_83) (= x_34 g_s84_84) (= x_34 g_s85_85) (= x_34 g_s86_86)))) (distinct g_s83_83 g_s84_84 g_s85_85 g_s86_86)))
(define-fun |def_aprp_11| () Bool (forall ( (x_35 Int) ) (=> (mem0 x_35 g_s7_7) (mem0 x_35 g_s6_6))))
(define-fun |def_aprp_12| () Bool (forall ( (x_36 Int) ) (= (mem0 x_36 g_s7_7) (and (mem0 x_36 g_s87_87) (not (= x_36 g_s52_52))))))
(define-fun |def_aprp_13| () Bool (exists ( (x_37 (P (C Int Bool))) ) (and (forall ( (x_38 Bool) (x_39 Int) ) (= (mem3 x_39 x_38 x_37) (mem3 x_39 x_38 g_s88_88))) (forall ( (x_40 Int) (x_41 Bool) (x_42 Bool) ) (=> (and  (mem3 x_40 x_41 x_37) (mem3 x_40 x_42 x_37)) (= x_41 x_42))) (forall ( (x_43 Int) ) (= (mem0 x_43 g_s66_66) (exists ( (x_44 Bool) ) (mem3 x_43 x_44 x_37)))) (forall ( (x_45 Bool) ) (=> (exists ( (x_46 Int) ) (mem3 x_46 x_45 x_37)) true)))))
(define-fun |def_aprp_14| () Bool (and (forall ( (x_47 Int) (x_48 Int) ) (=> (mem2 x_48 x_47 g_s89_89) (and (mem0 x_48 g_s66_66) (mem0 x_47 g_s13_13)))) (forall ( (x_49 Int) (x_50 Int) (x_51 Int) ) (=> (and  (mem2 x_49 x_50 g_s89_89) (mem2 x_49 x_51 g_s89_89)) (= x_50 x_51)))))
(define-fun |def_aprp_15| () Bool (exists ( (x_52 (P (C (C Int Int) Bool))) ) (and (forall ( (x_53 Bool) (x_54 Int) (x_55 Int) ) (= (mem4 x_55 x_54 x_53 x_52) (mem4 x_55 x_54 x_53 g_s90_90))) (forall ( (x_56 Int) (x_57 Int) (x_58 Bool) (x_59 Bool) ) (=> (and  (mem4 x_57 x_56 x_58 x_52) (mem4 x_57 x_56 x_59 x_52)) (= x_58 x_59))) (forall ( (x_60 Int) (x_61 Int) ) (= (and (mem0 x_61 g_s66_66) (mem0 x_60 g_s13_13)) (exists ( (x_62 Bool) ) (mem4 x_61 x_60 x_62 x_52)))) (forall ( (x_63 Bool) ) (=> (exists ( (x_64 Int) (x_65 Int) ) (mem4 x_65 x_64 x_63 x_52)) true)))))
(define-fun |def_aprp_16| () Bool (forall ( (x_66 Int) ) (=> (mem0 x_66 g_s91_91) (mem0 x_66 g_s6_6))))
(define-fun |def_aprp_17| () Bool (forall ( (x_67 Int) ) (=> (mem0 x_67 g_s92_92) (mem0 x_67 g_s6_6))))
(define-fun |def_aprp_18| () Bool (forall ( (x_68 Int) ) (=> (mem0 x_68 g_s87_87) (mem0 x_68 g_s6_6))))
(define-fun |def_aprp_19| () Bool (forall ( (x_69 Int) ) (=> (mem0 x_69 g_s93_93) (mem0 x_69 g_s6_6))))
(define-fun |def_aprp_20| () Bool (forall ( (x_70 Int) ) (=> (mem0 x_70 g_s94_94) (mem0 x_70 g_s6_6))))
(define-fun |def_aprp_21| () Bool (forall ( (x_71 Int) ) (=> (mem0 x_71 g_s95_95) (mem0 x_71 g_s6_6))))
(define-fun |def_aprp_22| () Bool (forall ( (x_72 Int) ) (= (mem0 x_72 g_s91_91) (or  (= x_72 g_s34_34) (= x_72 g_s35_35) (= x_72 g_s36_36) (= x_72 g_s37_37) (= x_72 g_s38_38)))))
(define-fun |def_aprp_23| () Bool (forall ( (x_73 Int) ) (= (mem0 x_73 g_s92_92) (or  (= x_73 g_s42_42) (= x_73 g_s43_43) (= x_73 g_s44_44) (= x_73 g_s45_45) (= x_73 g_s46_46)))))
(define-fun |def_aprp_24| () Bool (forall ( (x_74 Int) ) (= (mem0 x_74 g_s87_87) (and (forall ((x_75 (P Int)) ) (=> (mem5 g_s61_61 x_75 g_s96_96) (mem0 x_74 x_75))) (not (or (mem0 x_74 g_s91_91) (mem0 x_74 g_s92_92)))))))
(define-fun |def_aprp_25| () Bool (forall ( (x_76 Int) ) (= (mem0 x_76 g_s93_93) (or  (= x_76 g_s55_55) (= x_76 g_s56_56) (= x_76 g_s57_57) (= x_76 g_s58_58)))))
(define-fun |def_aprp_26| () Bool (forall ( (x_77 Int) ) (= (mem0 x_77 g_s94_94) (and (forall ((x_78 (P Int)) ) (=> (mem5 g_s63_63 x_78 g_s96_96) (mem0 x_77 x_78))) (not (mem0 x_77 g_s93_93))))))
(define-fun |def_aprp_27| () Bool (mem5 g_s64_64 g_s95_95 g_s96_96))
(define-fun |def_aprp_28| () Bool (and (exists ( (x_79 (P (C Int Int))) ) (and (forall ( (x_80 Int) (x_81 Int) ) (= (mem2 x_81 x_80 x_79) (mem2 x_81 x_80 g_s97_97))) (forall ( (x_82 Int) (x_83 Int) (x_84 Int) ) (=> (and  (mem2 x_82 x_83 x_79) (mem2 x_82 x_84 x_79)) (= x_83 x_84))) (forall ( (x_85 Int) ) (= (mem0 x_85 g_s66_66) (exists ( (x_86 Int) ) (mem2 x_85 x_86 x_79)))) (forall ( (x_87 Int) ) (=> (exists ( (x_88 Int) ) (mem2 x_88 x_87 x_79)) (mem0 x_87 g_s6_6))))) (forall ( (x_89 Int) ) (=> (mem0 x_89 g_s6_6) (exists ( (x_90 Int) ) (mem2 x_90 x_89 g_s97_97))))))
(define-fun |def_aprp_29| () Bool (and (forall ( (x_91 Int) (x_92 Int) ) (=> (mem2 x_92 x_91 g_s98_98) (and (mem0 x_92 g_s66_66) (mem0 x_91 g_s67_67)))) (forall ( (x_93 Int) (x_94 Int) (x_95 Int) ) (=> (and  (mem2 x_93 x_94 g_s98_98) (mem2 x_93 x_95 g_s98_98)) (= x_94 x_95)))))
(define-fun |def_aprp_30| () Bool (forall ( (x_96 Int) ) (= (exists ( (x_97 Int) ) (mem2 x_96 x_97 g_s98_98)) (and  (mem0 x_96 g_s66_66) (mem2 x_96 g_s30_30 g_s97_97)))))
(define-fun |def_aprp_31| () Bool (forall ( (x_98 Int) ) (= (exists ( (x_99 Int) ) (mem2 x_99 x_98 g_s98_98)) (mem0 x_98 g_s67_67))))
(define-fun |def_aprp_32| () Bool (exists ( (x_100 (P (C Int (P Int)))) ) (and (forall ( (x_101 (P Int)) (x_102 Int) ) (= (mem5 x_102 x_101 x_100) (mem5 x_102 x_101 g_s96_96))) (forall ( (x_103 Int) (x_104 (P Int)) (x_105 (P Int)) ) (=> (and  (mem5 x_103 x_104 x_100) (mem5 x_103 x_105 x_100)) (forall ( (x_106 Int) ) (= (mem0 x_106 x_104) (mem0 x_106 x_105))))) (forall ( (x_107 Int) ) (= (mem0 x_107 g_s60_60) (exists ( (x_108 (P Int)) ) (mem5 x_107 x_108 x_100)))) (forall ( (x_109 (P Int)) ) (=> (exists ( (x_110 Int) ) (mem5 x_110 x_109 x_100)) (forall ( (x_111 Int) ) (=> (mem0 x_111 x_109) (mem0 x_111 g_s6_6))))))))
(define-fun |def_aprp_33| () Bool (forall ( (x_112 (P Int)) (x_113 Int) ) (= (mem5 x_113 x_112 g_s96_96) (or  (and (= x_113 g_s61_61) (forall ( (x_114 Int) ) (= (mem0 x_114 x_112) (or  (= x_114 g_s25_25) (= x_114 g_s26_26) (= x_114 g_s27_27) (= x_114 g_s28_28) (= x_114 g_s29_29) (= x_114 g_s30_30) (= x_114 g_s31_31) (= x_114 g_s32_32) (= x_114 g_s33_33) (= x_114 g_s34_34) (= x_114 g_s35_35) (= x_114 g_s36_36) (= x_114 g_s37_37) (= x_114 g_s38_38) (= x_114 g_s39_39) (= x_114 g_s40_40) (= x_114 g_s41_41) (= x_114 g_s42_42) (= x_114 g_s43_43) (= x_114 g_s44_44) (= x_114 g_s45_45) (= x_114 g_s46_46) (= x_114 g_s47_47) (= x_114 g_s48_48) (= x_114 g_s49_49) (= x_114 g_s50_50) (= x_114 g_s51_51) (= x_114 g_s8_8) (= x_114 g_s52_52))))) (and (= x_113 g_s62_62) (forall ( (x_115 Int) ) (= (mem0 x_115 x_112) false))) (and (= x_113 g_s63_63) (forall ( (x_116 Int) ) (= (mem0 x_116 x_112) (or  (= x_116 g_s25_25) (= x_116 g_s53_53) (= x_116 g_s54_54) (= x_116 g_s55_55) (= x_116 g_s56_56) (= x_116 g_s57_57) (= x_116 g_s58_58))))) (and (= x_113 g_s64_64) (forall ( (x_117 Int) ) (= (mem0 x_117 x_112) (or  (= x_117 g_s40_40) (= x_117 g_s41_41))))) (and (= x_113 g_s65_65) (forall ( (x_118 Int) ) (= (mem0 x_118 x_112) false)))))))
(define-fun |def_abs_0| () Bool (mem0 g_s100$1_99 g_s9_9))
(define-fun |def_abs_1| () Bool (=> (not (= g_s100$1_99 g_s12_12)) (and  (= g_s101$1_100 g_s80_80) (= g_s102$1_101 g_s80_80) (= g_s103$1_102 g_s80_80))))
(define-fun |def_abs_2| () Bool (mem0 g_s104$1_103 g_s21_21))
(define-fun |def_abs_3| () Bool (or  (= g_s105$1_104 g_s72_72) (= g_s105$1_104 g_s73_73)))
(define-fun |def_abs_4| () Bool true)
(define-fun |def_abs_5| () Bool true)
(define-fun |def_abs_6| () Bool true)
(define-fun |def_abs_7| () Bool (=> (and  (= g_s109$1_105 1) (or  (= g_s110$1_106 g_s61_61) (= g_s110$1_106 g_s63_63) (= g_s110$1_106 g_s64_64))) (mem2 g_s111$1_107 g_s112$1_108 g_s97_97)))
(define-fun |def_abs_8| () Bool (or  (and (= (and  (= g_s104$1_103 g_s23_23) (= g_s106$1_109 true)) false) (= g_s113_110 g_s74_74)) (and (= (and  (= g_s104$1_103 g_s23_23) (= g_s106$1_109 true)) true) (= g_s113_110 g_s105$1_104))))
(define-fun |def_abs_9| () Bool (=> (= g_s114$1_111 true) (and  (= g_s102$1_101 g_s80_80) (= g_s101$1_100 g_s80_80) (= g_s103$1_102 g_s80_80))))
(define-fun |def_abs_10| () Bool (mem0 g_s110$1_106 g_s60_60))
(define-fun |def_abs_11| () Bool (mem0 g_s112$1_108 g_s6_6))
(define-fun |def_abs_12| () Bool (mem0 g_s115$1_112 g_s6_6))
(define-fun |def_abs_13| () Bool (=> (and  (= g_s109$1_105 1) (or  (= g_s110$1_106 g_s61_61) (= g_s110$1_106 g_s63_63) (= g_s110$1_106 g_s64_64))) (mem2 g_s111$1_107 g_s112$1_108 g_s97_97)))
(define-fun |def_abs_14| () Bool (=> (= g_s102$1_101 g_s80_80) (not (= g_s110$1_106 g_s65_65))))
(define-fun |def_abs_15| () Bool true)
(define-fun |def_abs_16| () Bool (and (>= g_s109$1_105 0) (<= g_s109$1_105 1)))
(define-fun |def_abs_17| () Bool (mem0 g_s111$1_107 g_s66_66))
(define-fun |def_abs_18| () Bool (mem0 g_s116$1_113 g_s75_75))
(define-fun |def_abs_19| () Bool (mem0 g_s117$1_114 g_s75_75))
(define-fun |def_abs_20| () Bool true)
(define-fun |def_abs_21| () Bool (mem0 g_s113_110 g_s71_71))
(define-fun |def_abs_22| () Bool (mem0 g_s102$1_101 g_s78_78))
(define-fun |def_abs_23| () Bool (mem0 g_s101$1_100 g_s78_78))
(define-fun |def_abs_24| () Bool (mem0 g_s103$1_102 g_s78_78))
(define-fun |def_abs_25| () Bool (mem0 g_s118$1_115 g_s82_82))
(define-fun |def_abs_26| () Bool true)
(define-fun |def_abs_27| () Bool (=> (= g_s114$1_111 true) (= g_s101$1_100 g_s80_80)))
(define-fun |def_abs_28| () Bool (=> (= g_s114$1_111 true) (= g_s102$1_101 g_s80_80)))
(define-fun |def_abs_29| () Bool (=> (= g_s114$1_111 true) (= g_s103$1_102 g_s80_80)))
(define-fun |def_abs_30| () Bool (not (or  (= g_s102$1_101 g_s81_81) (= g_s101$1_100 g_s81_81) (= g_s103$1_102 g_s81_81))))
(define-fun |def_abs_31| () Bool (=> (not (= g_s113_110 g_s72_72)) (not (= g_s118$1_115 g_s83_83))))
(define-fun |def_abs_32| () Bool (=> (not (= g_s113_110 g_s72_72)) (not (= g_s118$1_115 g_s84_84))))
(define-fun |def_abs_33| () Bool (=> (not (= g_s113_110 g_s73_73)) (not (= g_s118$1_115 g_s85_85))))
(define-fun |def_abs_34| () Bool (=> (= g_s116$1_113 g_s77_77) (not (= g_s118$1_115 g_s83_83))))
(define-fun |def_abs_35| () Bool (=> (= g_s116$1_113 g_s77_77) (not (= g_s118$1_115 g_s84_84))))
(define-fun |def_abs_36| () Bool (=> (= g_s117$1_114 g_s77_77) (not (= g_s118$1_115 g_s85_85))))
(define-fun |def_abs_37| () Bool (=> (and  (= g_s114$1_111 true) (not (= g_s113_110 g_s73_73))) (not (= g_s118$1_115 g_s85_85))))
(define-fun |def_abs_38| () Bool (forall ( (x_119 Int) ) (= (mem0 x_119 g_s7_7) (or  (= x_119 g_s25_25) (= x_119 g_s26_26) (= x_119 g_s27_27) (= x_119 g_s28_28) (= x_119 g_s29_29) (= x_119 g_s30_30) (= x_119 g_s31_31) (= x_119 g_s32_32) (= x_119 g_s33_33) (= x_119 g_s39_39) (= x_119 g_s40_40) (= x_119 g_s41_41) (= x_119 g_s47_47) (= x_119 g_s48_48) (= x_119 g_s49_49) (= x_119 g_s50_50) (= x_119 g_s51_51) (= x_119 g_s8_8)))))
(define-fun |def_abs_39| () Bool (forall ( (x_120 Int) ) (= (mem0 x_120 g_s87_87) (or  (= x_120 g_s25_25) (= x_120 g_s26_26) (= x_120 g_s27_27) (= x_120 g_s28_28) (= x_120 g_s29_29) (= x_120 g_s30_30) (= x_120 g_s31_31) (= x_120 g_s32_32) (= x_120 g_s33_33) (= x_120 g_s39_39) (= x_120 g_s40_40) (= x_120 g_s41_41) (= x_120 g_s47_47) (= x_120 g_s48_48) (= x_120 g_s49_49) (= x_120 g_s50_50) (= x_120 g_s51_51) (= x_120 g_s8_8) (= x_120 g_s52_52)))))
(define-fun |def_abs_40| () Bool (forall ( (x_121 Int) ) (= (mem0 x_121 g_s94_94) (or  (= x_121 g_s25_25) (= x_121 g_s53_53) (= x_121 g_s54_54)))))
(define-fun |def_abs_41| () Bool (forall ( (x_122 Int) ) (= (mem0 x_122 g_s95_95) (or  (= x_122 g_s40_40) (= x_122 g_s41_41)))))
(define-fun |def_abs_42| () Bool (= (= g_s113_110 g_s72_72) (and  (= g_s104$1_103 g_s23_23) (= g_s105$1_104 g_s72_72) (= g_s106$1_109 true))))
(define-fun |def_abs_43| () Bool (= (= g_s113_110 g_s73_73) (and  (= g_s104$1_103 g_s23_23) (= g_s105$1_104 g_s73_73) (= g_s106$1_109 true))))
(define-fun |def_abs_44| () Bool (= (= g_s113_110 g_s74_74) (not (and  (= g_s104$1_103 g_s23_23) (= g_s106$1_109 true)))))
(define-fun |def_abs_45| () Bool (forall ((x_123 (P Int)) ) (=> (forall ( (x_124 Int) ) (= (mem0 x_124 x_123) (or  (= x_124 g_s25_25) (= x_124 g_s26_26) (= x_124 g_s27_27) (= x_124 g_s28_28) (= x_124 g_s29_29) (= x_124 g_s30_30) (= x_124 g_s31_31) (= x_124 g_s32_32) (= x_124 g_s33_33) (= x_124 g_s34_34) (= x_124 g_s35_35) (= x_124 g_s36_36) (= x_124 g_s37_37) (= x_124 g_s38_38) (= x_124 g_s39_39) (= x_124 g_s40_40) (= x_124 g_s41_41) (= x_124 g_s42_42) (= x_124 g_s43_43) (= x_124 g_s44_44) (= x_124 g_s45_45) (= x_124 g_s46_46) (= x_124 g_s47_47) (= x_124 g_s48_48) (= x_124 g_s49_49) (= x_124 g_s50_50) (= x_124 g_s51_51) (= x_124 g_s8_8) (= x_124 g_s52_52)))) (mem5 g_s61_61 x_123 g_s96_96))))
(define-fun |def_abs_46| () Bool (forall ((x_125 (P Int)) ) (=> (forall ( (x_126 Int) ) (= (mem0 x_126 x_125) false)) (mem5 g_s62_62 x_125 g_s96_96))))
(define-fun |def_abs_47| () Bool (forall ((x_127 (P Int)) ) (=> (forall ( (x_128 Int) ) (= (mem0 x_128 x_127) (or  (= x_128 g_s25_25) (= x_128 g_s53_53) (= x_128 g_s54_54) (= x_128 g_s55_55) (= x_128 g_s56_56) (= x_128 g_s57_57) (= x_128 g_s58_58)))) (mem5 g_s63_63 x_127 g_s96_96))))
(define-fun |def_abs_48| () Bool (forall ((x_129 (P Int)) ) (=> (forall ( (x_130 Int) ) (= (mem0 x_130 x_129) (or  (= x_130 g_s40_40) (= x_130 g_s41_41)))) (mem5 g_s64_64 x_129 g_s96_96))))
(define-fun |def_abs_49| () Bool (forall ((x_131 (P Int)) ) (=> (forall ( (x_132 Int) ) (= (mem0 x_132 x_131) false)) (mem5 g_s65_65 x_131 g_s96_96))))
(define-fun |def_abs_50| () Bool (=> (= g_s114$1_111 true) (and  (= g_s101$1_100 g_s80_80) (= g_s102$1_101 g_s80_80) (= g_s103$1_102 g_s80_80))))
(define-fun |def_inv_0| () Bool (= g_s109_116 g_s109$1_105))
(define-fun |def_inv_1| () Bool (= g_s111_117 g_s111$1_107))
(define-fun |def_inv_2| () Bool (= g_s116_118 g_s116$1_113))
(define-fun |def_inv_3| () Bool (= g_s117_119 g_s117$1_114))
(define-fun |def_inv_4| () Bool (= g_s114_120 g_s114$1_111))
(define-fun |def_inv_5| () Bool (= g_s102_121 g_s102$1_101))
(define-fun |def_inv_6| () Bool (= g_s101_122 g_s101$1_100))
(define-fun |def_inv_7| () Bool (= g_s103_123 g_s103$1_102))
(define-fun |def_inv_8| () Bool (= g_s118_124 g_s118$1_115))
(define-fun |def_inv_9| () Bool (= g_s119_125 g_s119$1_126))
(define-fun |def_inv_10| () Bool (= g_s110_127 g_s110$1_106))
(define-fun |def_inv_11| () Bool (= g_s112_128 g_s112$1_108))
(define-fun |def_inv_12| () Bool (= g_s115_129 g_s115$1_112))
(define-fun |def_inv_13| () Bool (= g_s104_130 g_s104$1_103))
(define-fun |def_inv_14| () Bool (= g_s105_131 g_s105$1_104))
(define-fun |def_inv_15| () Bool (= g_s106_132 g_s106$1_109))
(define-fun |def_inv_16| () Bool (= g_s107_133 g_s107$1_134))
(define-fun |def_inv_17| () Bool (= g_s108_135 g_s108$1_136))
(define-fun |def_inv_18| () Bool (= g_s100_137 g_s100$1_99))
(define-fun |def_inv_19| () Bool (exists ( (x_133 (P (C Int Bool))) ) (and (forall ( (x_134 Bool) (x_135 Int) ) (= (mem3 x_135 x_134 x_133) (mem3 x_135 x_134 g_s120$1_138))) (forall ( (x_136 Int) (x_137 Bool) (x_138 Bool) ) (=> (and  (mem3 x_136 x_137 x_133) (mem3 x_136 x_138 x_133)) (= x_137 x_138))) (forall ( (x_139 Int) ) (= (mem0 x_139 g_s67_67) (exists ( (x_140 Bool) ) (mem3 x_139 x_140 x_133)))) (forall ( (x_141 Bool) ) (=> (exists ( (x_142 Int) ) (mem3 x_142 x_141 x_133)) true)))))
(define-fun |def_inv_20| () Bool true)
(define-fun |def_inv_21| () Bool true)
(define-fun |def_inv_22| () Bool true)
(define-fun |def_inv_23| () Bool true)
(define-fun |def_inv_24| () Bool true)
(define-fun |def_inv_25| () Bool (exists ( (x_143 (P (C Int Bool))) ) (and (forall ( (x_144 Bool) (x_145 Int) ) (= (mem3 x_145 x_144 x_143) (mem3 x_145 x_144 g_s120$1_138))) (forall ( (x_146 Int) (x_147 Bool) (x_148 Bool) ) (=> (and  (mem3 x_146 x_147 x_143) (mem3 x_146 x_148 x_143)) (= x_147 x_148))) (forall ( (x_149 Int) ) (= (mem0 x_149 g_s67_67) (exists ( (x_150 Bool) ) (mem3 x_149 x_150 x_143)))) (forall ( (x_151 Bool) ) (=> (exists ( (x_152 Int) ) (mem3 x_152 x_151 x_143)) true)))))
(define-fun |def_inv_26| () Bool true)
(define-fun |def_inv_27| () Bool true)
(define-fun |def_inv_28| () Bool true)
(define-fun |def_inv_29| () Bool true)
(define-fun |def_inv_30| () Bool (mem0 g_s130$1_139 g_s21_21))
(define-fun |def_inv_31| () Bool true)
(define-fun |def_ass_0| () Bool (forall ( (x_153 Int) ) (= (mem0 x_153 g_s5_5) (or  (= x_153 g_s25_25) (= x_153 g_s26_26) (= x_153 g_s27_27) (= x_153 g_s28_28) (= x_153 g_s39_39) (= x_153 g_s29_29) (= x_153 g_s30_30) (= x_153 g_s31_31) (= x_153 g_s32_32) (= x_153 g_s33_33) (= x_153 g_s40_40) (= x_153 g_s41_41) (= x_153 g_s47_47) (= x_153 g_s48_48) (= x_153 g_s49_49) (= x_153 g_s50_50) (= x_153 g_s51_51)))))
(define-fun |def_sets_0| () Bool (and (forall ( (x_154 Int) ) (= (mem0 x_154 g_s0_0) (or  (= x_154 g_s1_1) (= x_154 g_s2_2) (= x_154 g_s3_3) (= x_154 g_s4_4)))) (distinct g_s1_1 g_s2_2 g_s3_3 g_s4_4)))
; PO group s163
(assert (! |def_aprp_0| :named |aprp0|))
(assert (! |def_aprp_1| :named |aprp1|))
(assert (! |def_aprp_2| :named |aprp2|))
(assert (! |def_aprp_3| :named |aprp3|))
(assert (! |def_aprp_4| :named |aprp4|))
(assert (! |def_aprp_5| :named |aprp5|))
(assert (! |def_aprp_6| :named |aprp6|))
(assert (! |def_aprp_7| :named |aprp7|))
(assert (! |def_aprp_8| :named |aprp8|))
(assert (! |def_aprp_9| :named |aprp9|))
(assert (! |def_aprp_10| :named |aprp10|))
(assert (! |def_aprp_11| :named |aprp11|))
(assert (! |def_aprp_12| :named |aprp12|))
(assert (! |def_aprp_13| :named |aprp13|))
(assert (! |def_aprp_14| :named |aprp14|))
(assert (! |def_aprp_15| :named |aprp15|))
(assert (! |def_aprp_16| :named |aprp16|))
(assert (! |def_aprp_17| :named |aprp17|))
(assert (! |def_aprp_18| :named |aprp18|))
(assert (! |def_aprp_19| :named |aprp19|))
(assert (! |def_aprp_20| :named |aprp20|))
(assert (! |def_aprp_21| :named |aprp21|))
(assert (! |def_aprp_22| :named |aprp22|))
(assert (! |def_aprp_23| :named |aprp23|))
(assert (! |def_aprp_24| :named |aprp24|))
(assert (! |def_aprp_25| :named |aprp25|))
(assert (! |def_aprp_26| :named |aprp26|))
(assert (! |def_aprp_27| :named |aprp27|))
(assert (! |def_aprp_28| :named |aprp28|))
(assert (! |def_aprp_29| :named |aprp29|))
(assert (! |def_aprp_30| :named |aprp30|))
(assert (! |def_aprp_31| :named |aprp31|))
(assert (! |def_aprp_32| :named |aprp32|))
(assert (! |def_aprp_33| :named |aprp33|))
(assert (! |def_lprp_0| :named |lprp0|))
(assert (! |def_lprp_1| :named |lprp1|))
(assert (! |def_lprp_2| :named |lprp2|))
(assert (! |def_abs_0| :named |abs0|))
(assert (! |def_abs_1| :named |abs1|))
(assert (! |def_abs_2| :named |abs2|))
(assert (! |def_abs_3| :named |abs3|))
(assert (! |def_abs_4| :named |abs4|))
(assert (! |def_abs_5| :named |abs5|))
(assert (! |def_abs_6| :named |abs6|))
(assert (! |def_abs_7| :named |abs7|))
(assert (! |def_abs_8| :named |abs8|))
(assert (! |def_abs_9| :named |abs9|))
(assert (! |def_abs_10| :named |abs10|))
(assert (! |def_abs_11| :named |abs11|))
(assert (! |def_abs_12| :named |abs12|))
(assert (! |def_abs_13| :named |abs13|))
(assert (! |def_abs_14| :named |abs14|))
(assert (! |def_abs_15| :named |abs15|))
(assert (! |def_abs_16| :named |abs16|))
(assert (! |def_abs_17| :named |abs17|))
(assert (! |def_abs_18| :named |abs18|))
(assert (! |def_abs_19| :named |abs19|))
(assert (! |def_abs_20| :named |abs20|))
(assert (! |def_abs_21| :named |abs21|))
(assert (! |def_abs_22| :named |abs22|))
(assert (! |def_abs_23| :named |abs23|))
(assert (! |def_abs_24| :named |abs24|))
(assert (! |def_abs_25| :named |abs25|))
(assert (! |def_abs_26| :named |abs26|))
(assert (! |def_abs_27| :named |abs27|))
(assert (! |def_abs_28| :named |abs28|))
(assert (! |def_abs_29| :named |abs29|))
(assert (! |def_abs_30| :named |abs30|))
(assert (! |def_abs_31| :named |abs31|))
(assert (! |def_abs_32| :named |abs32|))
(assert (! |def_abs_33| :named |abs33|))
(assert (! |def_abs_34| :named |abs34|))
(assert (! |def_abs_35| :named |abs35|))
(assert (! |def_abs_36| :named |abs36|))
(assert (! |def_abs_37| :named |abs37|))
(assert (! |def_abs_38| :named |abs38|))
(assert (! |def_abs_39| :named |abs39|))
(assert (! |def_abs_40| :named |abs40|))
(assert (! |def_abs_41| :named |abs41|))
(assert (! |def_abs_42| :named |abs42|))
(assert (! |def_abs_43| :named |abs43|))
(assert (! |def_abs_44| :named |abs44|))
(assert (! |def_abs_45| :named |abs45|))
(assert (! |def_abs_46| :named |abs46|))
(assert (! |def_abs_47| :named |abs47|))
(assert (! |def_abs_48| :named |abs48|))
(assert (! |def_abs_49| :named |abs49|))
(assert (! |def_abs_50| :named |abs50|))
(assert (! |def_inv_0| :named |inv0|))
(assert (! |def_inv_1| :named |inv1|))
(assert (! |def_inv_2| :named |inv2|))
(assert (! |def_inv_3| :named |inv3|))
(assert (! |def_inv_4| :named |inv4|))
(assert (! |def_inv_5| :named |inv5|))
(assert (! |def_inv_6| :named |inv6|))
(assert (! |def_inv_7| :named |inv7|))
(assert (! |def_inv_8| :named |inv8|))
(assert (! |def_inv_9| :named |inv9|))
(assert (! |def_inv_10| :named |inv10|))
(assert (! |def_inv_11| :named |inv11|))
(assert (! |def_inv_12| :named |inv12|))
(assert (! |def_inv_13| :named |inv13|))
(assert (! |def_inv_14| :named |inv14|))
(assert (! |def_inv_15| :named |inv15|))
(assert (! |def_inv_16| :named |inv16|))
(assert (! |def_inv_17| :named |inv17|))
(assert (! |def_inv_18| :named |inv18|))
(assert (! |def_inv_19| :named |inv19|))
(assert (! |def_inv_20| :named |inv20|))
(assert (! |def_inv_21| :named |inv21|))
(assert (! |def_inv_22| :named |inv22|))
(assert (! |def_inv_23| :named |inv23|))
(assert (! |def_inv_24| :named |inv24|))
(assert (! |def_inv_25| :named |inv25|))
(assert (! |def_inv_26| :named |inv26|))
(assert (! |def_inv_27| :named |inv27|))
(assert (! |def_inv_28| :named |inv28|))
(assert (! |def_inv_29| :named |inv29|))
(assert (! |def_inv_30| :named |inv30|))
(assert (! |def_inv_31| :named |inv31|))
(assert (! |def_ass_0| :named |ass0|))
(define-fun lh_1 () Bool (= g_s109$1_105 1))
(define-fun lh_2 () Bool (= g_s110$1_106 g_s61_61))
(define-fun lh_3 () Bool (= g_s112$1_108 g_s8_8))
(define-fun lh_4 () Bool (forall ((x_155 Bool) ) (=> (= x_155 true) (mem3 g_s111$1_107 x_155 g_s88_88))))
(define-fun lh_5 () Bool (= g_s106$1_109 true))
(define-fun lh_6 () Bool (= g_s104$1_103 g_s23_23))
(define-fun lh_7 () Bool (= g_s105$1_104 g_s73_73))
(define-fun lh_8 () Bool (forall ((x_156 Bool) ) (=> (= x_156 true) (mem4 g_s111$1_107 g_s19_19 x_156 g_s90_90))))
(define-fun lh_9 () Bool (= g_s121$1_140 true))
(define-fun lh_10 () Bool (= g_s123$1_141 true))
(define-fun lh_11 () Bool (= g_s124$1_142 true))
(define-fun lh_12 () Bool (= g_s125$1_143 true))
(define-fun lh_13 () Bool (forall ((x_157 Bool) ) (=> (= x_157 false) (mem3 g_s68_68 x_157 g_s120$1_138))))
(define-fun lh_14 () Bool (forall ((x_158 Bool) ) (=> (= x_158 false) (mem3 g_s69_69 x_158 g_s120$1_138))))
; PO 2 in group s163
(assert (! (not (=> (and lh_1 lh_2 lh_3 lh_4 lh_5 lh_6 lh_7) (exists ( (x_159 Bool) ) (mem4 g_s111$1_107 g_s19_19 x_159 g_s90_90)))) :named goal))
(check-sat)
(exit)
